c uprop, v00.0, 
c reading from data/prog329.c.cnf
c done reading: 0.002422
p cnf 165 738
-72 -90 0
72 90 0
-67 90 0
67 -90 0
72 -84 0
-82 -84 0
-72 82 84 0
-72 -77 82 0
72 -77 -82 0
72 77 82 0
-72 77 -82 0
-73 84 0
-70 -73 0
70 73 -84 0
-69 70 -84 0
-69 -70 84 0
69 70 84 0
69 -70 -84 0
-68 73 0
-65 -68 0
65 68 -73 0
-63 65 -73 0
-63 -65 73 0
63 65 73 0
63 -65 -73 0
68 -88 0
-86 -88 0
-68 86 88 0
-68 86 -92 0
68 -86 -92 0
68 86 92 0
-68 -86 92 0
88 -93 0
-79 -93 0
79 -88 93 0
79 -88 -94 0
-79 88 -94 0
79 88 94 0
-79 -88 94 0
93 -95 0
-75 -95 0
75 -93 95 0
75 -93 -96 0
-75 93 -96 0
75 93 96 0
-75 -93 96 0
70 -97 0
-70 97 0
-65 -90 98 0
65 90 -98 0
65 -98 0
90 -98 0
65 -98 -99 0
90 -98 -99 0
-98 -99 0
-65 98 99 0
-90 98 99 0
65 90 -99 0
-82 -86 100 0
-86 -98 100 0
-82 -98 100 0
82 86 -100 0
86 98 -100 0
82 98 -100 0
86 -100 -101 0
82 -100 -101 0
98 -100 -101 0
-86 100 101 0
-82 100 101 0
-98 100 101 0
-82 -86 -98 101 0
82 86 98 -101 0
-70 -79 102 0
-79 -100 102 0
-70 -100 102 0
70 79 -102 0
79 100 -102 0
70 100 -102 0
79 -102 -103 0
70 -102 -103 0
100 -102 -103 0
-79 102 103 0
-70 102 103 0
-100 102 103 0
-70 -79 -100 103 0
70 79 100 -103 0
-65 -75 104 0
-75 -102 104 0
-65 -102 104 0
65 75 -104 0
75 102 -104 0
65 102 -104 0
-62 75 -104 0
-62 65 -104 0
-62 102 -104 0
62 -75 104 0
62 -65 104 0
62 -102 104 0
62 -65 -75 -102 0
-62 65 75 102 0
-61 86 0
-61 104 0
61 -86 -104 0
-60 -86 -104 0
-60 86 104 0
60 -86 104 0
60 86 -104 0
-59 79 0
-59 61 0
59 -61 -79 0
-58 -61 -79 0
-58 61 79 0
58 61 -79 0
58 -61 79 0
75 -89 0
59 -89 0
-59 -75 89 0
-59 -75 -81 0
59 75 -81 0
59 -75 81 0
-59 75 81 0
-64 99 0
64 -99 0
85 -90 -101 0
-85 90 101 0
-85 101 0
-85 90 0
-78 -85 101 0
-78 -85 90 0
-78 -85 0
78 85 -101 0
78 85 -90 0
-78 90 101 0
74 -82 -103 0
74 -85 -103 0
74 -82 -85 0
-74 82 103 0
-74 85 103 0
-74 82 85 0
-57 -74 103 0
-57 -74 82 0
-57 -74 85 0
57 74 -103 0
57 74 -82 0
57 74 -85 0
57 -82 -85 -103 0
-57 82 85 103 0
56 -62 -70 0
56 -62 -74 0
56 -70 -74 0
-56 62 70 0
-56 62 74 0
-56 70 74 0
-55 -56 62 0
-55 -56 70 0
-55 -56 74 0
55 56 -62 0
55 56 -70 0
55 56 -74 0
55 -62 -70 -74 0
-55 62 70 74 0
54 -60 -65 0
54 -56 -60 0
54 -56 -65 0
-54 60 65 0
-54 56 60 0
-54 56 65 0
-53 -54 60 0
-53 -54 65 0
-53 -54 56 0
53 54 -60 0
53 54 -65 0
53 54 -56 0
53 -56 -60 -65 0
-53 56 60 65 0
52 -58 -86 0
52 -54 -58 0
52 -54 -86 0
-52 58 86 0
-52 54 58 0
-52 54 86 0
-51 -52 58 0
-51 -52 86 0
-51 -52 54 0
51 52 -58 0
51 52 -86 0
51 52 -54 0
51 -54 -58 -86 0
-51 54 58 86 0
50 -79 -81 0
50 -52 -81 0
50 -52 -79 0
-50 79 81 0
-50 52 81 0
-50 52 79 0
-49 -50 81 0
-49 -50 79 0
-49 -50 52 0
49 50 -81 0
49 50 -79 0
49 50 -52 0
49 -52 -79 -81 0
-49 52 79 81 0
48 -75 -89 0
48 -50 -89 0
48 -50 -75 0
-48 75 89 0
-48 50 89 0
-48 50 75 0
-47 -48 89 0
-47 -48 75 0
-47 -48 50 0
47 48 -89 0
47 48 -75 0
47 48 -50 0
47 -50 -75 -89 0
-47 50 75 89 0
-46 -90 0
46 90 0
-45 90 0
45 -90 0
-44 46 0
-44 -82 0
44 -46 82 0
-43 -46 82 0
-43 46 -82 0
43 46 82 0
43 -46 -82 0
-42 44 0
-42 -97 0
42 -44 97 0
-41 -44 97 0
-41 44 -97 0
41 44 97 0
41 -44 -97 0
-40 42 0
-40 -64 0
40 -42 64 0
-39 -42 64 0
-39 42 -64 0
39 42 64 0
39 -42 -64 0
40 -105 0
-78 -105 0
-40 78 105 0
-40 78 -106 0
40 -78 -106 0
40 78 106 0
-40 -78 106 0
105 -107 0
-57 -107 0
57 -105 107 0
57 -105 -108 0
-57 105 -108 0
57 105 108 0
-57 -105 108 0
107 -109 0
-55 -109 0
55 -107 109 0
55 -107 -110 0
-55 107 -110 0
55 107 110 0
-55 -107 110 0
109 -111 0
-53 -111 0
53 -109 111 0
53 -109 -112 0
-53 109 -112 0
53 109 112 0
-53 -109 112 0
111 -113 0
-51 -113 0
51 -111 113 0
51 -111 -114 0
-51 111 -114 0
51 111 114 0
-51 -111 114 0
113 -115 0
-49 -115 0
49 -113 115 0
49 -113 -116 0
-49 113 -116 0
49 113 116 0
-49 -113 116 0
115 -117 0
-47 -117 0
47 -115 117 0
47 -115 -118 0
-47 115 -118 0
47 115 118 0
-47 -115 118 0
117 -119 0
-48 -119 0
48 -117 119 0
48 -117 -120 0
-48 117 -120 0
48 117 120 0
-48 -117 120 0
-121 -123 0
-123 -124 0
121 123 124 0
121 124 -126 0
-121 -124 -126 0
-121 124 126 0
121 -124 126 0
123 -127 0
-127 -128 0
-123 127 128 0
-123 128 -130 0
123 -128 -130 0
123 128 130 0
-123 -128 130 0
127 -131 0
-131 -132 0
-127 131 132 0
-127 132 -134 0
127 -132 -134 0
127 132 134 0
-127 -132 134 0
131 -135 0
-135 -136 0
-131 135 136 0
-131 136 -138 0
131 -136 -138 0
131 136 138 0
-131 -136 138 0
135 -139 0
-139 -140 0
-135 139 140 0
-135 140 -142 0
135 -140 -142 0
135 140 142 0
-135 -140 142 0
139 -143 0
-143 -144 0
-139 143 144 0
-139 144 -146 0
139 -144 -146 0
139 144 146 0
-139 -144 146 0
143 -147 0
-147 -148 0
-143 147 148 0
-143 148 -150 0
143 -148 -150 0
143 148 150 0
-143 -148 150 0
128 -151 0
121 -151 0
-121 -128 151 0
-121 -128 -152 0
121 128 -152 0
121 -128 152 0
-121 128 152 0
-124 -132 153 0
-132 -151 153 0
-124 -151 153 0
124 132 -153 0
132 151 -153 0
124 151 -153 0
132 -153 -154 0
124 -153 -154 0
151 -153 -154 0
-132 153 154 0
-124 153 154 0
-151 153 154 0
-124 -132 -151 154 0
124 132 151 -154 0
-128 -136 155 0
-136 -153 155 0
-128 -153 155 0
128 136 -155 0
136 153 -155 0
128 153 -155 0
136 -155 -156 0
128 -155 -156 0
153 -155 -156 0
-136 155 156 0
-128 155 156 0
-153 155 156 0
-128 -136 -153 156 0
128 136 153 -156 0
-132 -140 157 0
-140 -155 157 0
-132 -155 157 0
132 140 -157 0
140 155 -157 0
132 155 -157 0
140 -157 -158 0
132 -157 -158 0
155 -157 -158 0
-140 157 158 0
-132 157 158 0
-155 157 158 0
-132 -140 -155 158 0
132 140 155 -158 0
-136 -144 159 0
-144 -157 159 0
-136 -157 159 0
136 144 -159 0
144 157 -159 0
136 157 -159 0
144 -159 -160 0
136 -159 -160 0
157 -159 -160 0
-144 159 160 0
-136 159 160 0
-157 159 160 0
-136 -144 -157 160 0
136 144 157 -160 0
-140 -148 161 0
-148 -159 161 0
-140 -159 161 0
140 148 -161 0
148 159 -161 0
140 159 -161 0
148 -161 -162 0
140 -161 -162 0
159 -161 -162 0
-148 161 162 0
-140 161 162 0
-159 161 162 0
-140 -148 -159 162 0
140 148 159 -162 0
-91 144 0
-91 161 0
91 -144 -161 0
-83 -144 -161 0
-83 144 161 0
83 -144 161 0
83 144 -161 0
-71 148 0
-71 91 0
71 -91 -148 0
-66 -91 -148 0
-66 91 148 0
66 91 -148 0
66 -91 148 0
-87 156 0
-87 121 0
87 -121 -156 0
-80 -121 -156 0
-80 121 156 0
80 121 -156 0
80 -121 156 0
76 -124 -158 0
76 -87 -158 0
76 -87 -124 0
-76 124 158 0
-76 87 158 0
-76 87 124 0
-76 -122 158 0
-76 -122 124 0
-76 87 -122 0
76 122 -158 0
76 122 -124 0
76 -87 122 0
-87 122 -124 -158 0
87 -122 124 158 0
125 -128 -160 0
-76 125 -160 0
-76 125 -128 0
-125 128 160 0
76 -125 160 0
76 -125 128 0
-125 -129 160 0
-125 128 -129 0
76 -125 -129 0
125 129 -160 0
125 -128 129 0
-76 125 129 0
-76 -128 129 -160 0
76 128 -129 160 0
-132 133 -162 0
-125 133 -162 0
-125 -132 133 0
132 -133 162 0
125 -133 162 0
125 132 -133 0
-133 -137 162 0
132 -133 -137 0
125 -133 -137 0
133 137 -162 0
-132 133 137 0
-125 133 137 0
-125 -132 137 -162 0
125 132 -137 162 0
-83 -136 141 0
-83 -133 141 0
-133 -136 141 0
83 136 -141 0
83 133 -141 0
133 136 -141 0
83 -141 -145 0
136 -141 -145 0
133 -141 -145 0
-83 141 145 0
-136 141 145 0
-133 141 145 0
-83 -133 -136 145 0
83 133 136 -145 0
-66 -140 149 0
-66 -141 149 0
-140 -141 149 0
66 140 -149 0
66 141 -149 0
140 141 -149 0
66 -149 -163 0
140 -149 -163 0
141 -149 -163 0
-66 149 163 0
-140 149 163 0
-141 149 163 0
-66 -140 -141 163 0
66 140 141 -163 0
-71 -144 164 0
-71 -149 164 0
-144 -149 164 0
71 144 -164 0
71 149 -164 0
144 149 -164 0
71 -164 -165 0
144 -164 -165 0
149 -164 -165 0
-71 164 165 0
-144 164 165 0
-149 164 165 0
-71 -144 -149 165 0
71 144 149 -165 0
-38 148 0
-38 164 0
38 -148 -164 0
-37 -148 -164 0
-37 148 164 0
37 -148 164 0
37 148 -164 0
-36 -121 0
-36 -124 0
36 121 124 0
-35 121 124 0
-35 -121 -124 0
35 -121 124 0
35 121 -124 0
-34 36 0
-34 -152 0
34 -36 152 0
-33 -36 152 0
-33 36 -152 0
33 36 152 0
33 -36 -152 0
-32 34 0
-32 -154 0
32 -34 154 0
-31 -34 154 0
-31 34 -154 0
31 34 154 0
31 -34 -154 0
-30 32 0
-30 -80 0
30 -32 80 0
-29 -32 80 0
-29 32 -80 0
29 32 80 0
29 -32 -80 0
-28 30 0
-28 -122 0
28 -30 122 0
-27 -30 122 0
-27 30 -122 0
27 30 122 0
27 -30 -122 0
-26 28 0
-26 -129 0
26 -28 129 0
-25 -28 129 0
-25 28 -129 0
25 28 129 0
25 -28 -129 0
-24 26 0
-24 -137 0
24 -26 137 0
-23 -26 137 0
-23 26 -137 0
23 26 137 0
23 -26 -137 0
-22 24 0
-22 -145 0
22 -24 145 0
-21 -24 145 0
-21 24 -145 0
21 24 145 0
21 -24 -145 0
-20 22 0
-20 -163 0
20 -22 163 0
-19 -22 163 0
-19 22 -163 0
19 22 163 0
19 -22 -163 0
-18 20 0
-18 -165 0
18 -20 165 0
-17 -20 165 0
-17 20 -165 0
17 20 165 0
17 -20 -165 0
-16 18 0
-16 -37 0
16 -18 37 0
-15 -18 37 0
-15 18 -37 0
15 18 37 0
15 -18 -37 0
-14 16 0
-14 -38 0
14 -16 38 0
-13 -16 38 0
-13 16 -38 0
13 16 38 0
13 -16 -38 0
-12 90 0
-12 121 0
12 -90 -121 0
-90 121 0
90 -121 0
11 -82 -124 0
11 -12 -82 0
11 -12 -124 0
-11 82 124 0
-11 12 82 0
-11 12 124 0
-11 82 0
-11 124 0
-11 12 0
12 82 124 0
10 -97 -152 0
10 -11 -97 0
10 -11 -152 0
-10 97 152 0
-10 11 97 0
-10 11 152 0
-10 97 0
-10 152 0
-10 11 0
11 97 152 0
9 -64 -154 0
9 -10 -64 0
9 -10 -154 0
-9 64 154 0
-9 10 64 0
-9 10 154 0
-9 64 0
-9 154 0
-9 10 0
10 64 154 0
8 -78 -80 0
8 -9 -78 0
8 -9 -80 0
-8 78 80 0
-8 9 78 0
-8 9 80 0
-8 78 0
-8 80 0
-8 9 0
9 78 80 0
7 -57 -122 0
7 -8 -57 0
7 -8 -122 0
-7 57 122 0
-7 8 57 0
-7 8 122 0
-7 57 0
-7 122 0
-7 8 0
8 57 122 0
6 -55 -129 0
6 -7 -55 0
6 -7 -129 0
-6 55 129 0
-6 7 55 0
-6 7 129 0
6 -55 0
6 -129 0
6 -7 0
-7 -55 -129 0
5 -53 -137 0
5 -6 -53 0
5 -6 -137 0
-5 53 137 0
-5 6 53 0
-5 6 137 0
5 -53 0
5 -137 0
5 -6 0
-6 -53 -137 0
4 -51 -145 0
4 -5 -51 0
4 -5 -145 0
-4 51 145 0
-4 5 51 0
-4 5 145 0
4 -51 0
4 -145 0
4 -5 0
-5 -51 -145 0
3 -49 -163 0
3 -4 -49 0
3 -4 -163 0
-3 49 163 0
-3 4 49 0
-3 4 163 0
3 -49 0
3 -163 0
3 -4 0
-4 -49 -163 0
2 -47 -165 0
2 -3 -47 0
2 -3 -165 0
-2 47 165 0
-2 3 47 0
-2 3 165 0
2 -47 0
2 -165 0
2 -3 0
-3 -47 -165 0
1 -37 -48 0
1 -2 -48 0
1 -2 -37 0
-1 37 48 0
-1 2 48 0
-1 2 37 0
1 -48 0
1 -37 0
1 -2 0
-2 -37 -48 0
-1 -38 0
1 -38 0
-1 38 0
